40
612
10
28
31
22
93
40
86
94
57
35
20
0 1
0 2
0 3
0 5
0 6
0 7
0 8
0 9
0 10
0 11
0 12
0 14
0 15
0 16
0 19
0 20
0 22
0 23
0 25
0 26
0 27
0 28
0 29
0 30
0 31
0 32
0 33
0 34
0 35
0 36
0 37
0 38
1 2
1 3
1 5
1 6
1 7
1 8
1 9
1 10
1 11
1 12
1 14
1 15
1 16
1 17
1 18
1 19
1 20
1 22
1 25
1 26
1 27
1 28
1 29
1 30
1 31
1 32
1 34
1 35
1 36
1 37
1 38
2 3
2 4
2 6
2 8
2 9
2 10
2 11
2 12
2 14
2 15
2 17
2 19
2 20
2 21
2 24
2 26
2 29
2 30
2 31
2 33
2 34
2 35
2 37
3 6
3 7
3 8
3 9
3 11
3 12
3 13
3 14
3 15
3 17
3 19
3 21
3 22
3 25
3 26
3 27
3 28
3 29
3 30
3 31
3 32
3 33
3 34
3 35
3 36
3 38
3 39
4 6
4 7
4 8
4 9
4 11
4 12
4 13
4 14
4 15
4 16
4 17
4 19
4 20
4 21
4 22
4 24
4 25
4 26
4 27
4 28
4 29
4 30
4 31
4 32
4 33
4 34
4 35
4 36
4 37
4 38
4 39
5 6
5 7
5 9
5 12
5 13
5 15
5 17
5 18
5 20
5 21
5 22
5 23
5 24
5 25
5 26
5 27
5 28
5 29
5 31
5 32
5 33
5 35
5 36
5 37
5 38
5 39
6 9
6 11
6 12
6 13
6 15
6 16
6 17
6 18
6 19
6 20
6 21
6 22
6 23
6 25
6 26
6 27
6 28
6 30
6 31
6 33
6 34
6 36
6 37
6 38
6 39
7 8
7 9
7 11
7 12
7 13
7 14
7 16
7 17
7 18
7 19
7 20
7 22
7 24
7 25
7 26
7 27
7 28
7 29
7 30
7 32
7 33
7 34
7 35
7 36
7 37
7 38
8 9
8 10
8 11
8 15
8 17
8 18
8 19
8 20
8 21
8 23
8 24
8 26
8 27
8 29
8 30
8 31
8 33
8 34
8 35
8 36
8 37
8 38
8 39
9 10
9 11
9 12
9 13
9 14
9 15
9 16
9 17
9 19
9 20
9 22
9 23
9 25
9 26
9 27
9 28
9 29
9 30
9 31
9 32
9 34
9 35
9 36
9 37
9 38
9 39
10 12
10 13
10 14
10 15
10 16
10 18
10 19
10 21
10 23
10 24
10 25
10 26
10 27
10 28
10 29
10 30
10 31
10 32
10 33
10 34
10 36
10 37
10 38
11 13
11 14
11 15
11 16
11 17
11 19
11 20
11 21
11 22
11 23
11 26
11 27
11 28
11 29
11 30
11 31
11 32
11 34
11 35
11 37
11 38
11 39
12 13
12 14
12 15
12 17
12 18
12 20
12 22
12 23
12 24
12 25
12 26
12 27
12 28
12 29
12 30
12 31
12 33
12 34
12 35
12 36
12 38
12 39
13 14
13 15
13 16
13 17
13 19
13 20
13 21
13 22
13 23
13 24
13 25
13 28
13 29
13 30
13 31
13 32
13 34
13 35
13 36
13 37
13 38
13 39
14 15
14 16
14 18
14 19
14 20
14 21
14 22
14 23
14 24
14 25
14 27
14 28
14 29
14 30
14 31
14 32
14 33
14 34
14 35
14 36
14 37
14 38
15 16
15 17
15 18
15 19
15 20
15 21
15 22
15 23
15 24
15 25
15 26
15 27
15 28
15 30
15 32
15 33
15 34
15 36
15 37
15 38
15 39
16 17
16 18
16 19
16 23
16 24
16 25
16 26
16 27
16 28
16 29
16 30
16 31
16 33
16 34
16 35
16 36
16 38
16 39
17 19
17 20
17 21
17 22
17 23
17 24
17 25
17 26
17 27
17 28
17 30
17 31
17 32
17 34
17 35
17 37
17 38
17 39
18 19
18 20
18 21
18 22
18 24
18 25
18 26
18 28
18 29
18 30
18 31
18 32
18 34
18 39
19 20
19 21
19 23
19 24
19 25
19 26
19 27
19 28
19 29
19 31
19 32
19 33
19 35
20 21
20 23
20 24
20 26
20 28
20 30
20 31
20 32
20 33
20 35
20 36
20 37
20 38
20 39
21 22
21 23
21 25
21 26
21 27
21 28
21 30
21 31
21 32
21 33
21 36
21 37
21 38
22 23
22 24
22 25
22 26
22 28
22 30
22 32
22 33
22 34
22 35
22 36
22 37
23 24
23 25
23 28
23 30
23 31
23 32
23 33
23 34
23 35
23 36
23 37
23 38
23 39
24 25
24 27
24 29
24 30
24 31
24 33
24 34
24 35
24 36
24 38
24 39
25 26
25 27
25 28
25 29
25 31
25 33
25 35
25 36
25 37
25 38
25 39
26 27
26 29
26 30
26 32
26 33
26 34
26 35
26 36
26 37
26 38
26 39
27 28
27 29
27 30
27 31
27 32
27 33
27 34
27 35
27 36
27 37
27 38
27 39
28 29
28 33
28 34
28 35
28 36
28 37
28 38
29 30
29 32
29 34
29 36
29 37
29 38
29 39
30 31
30 32
30 34
30 35
30 36
30 37
30 39
31 32
31 34
31 35
31 36
31 37
31 38
31 39
32 33
32 34
32 35
32 37
32 38
32 39
33 34
33 35
33 36
33 37
33 39
34 35
34 36
34 38
34 39
35 37
35 38
35 39
36 37
36 38
37 38
38 39
29 37 14 6
7 12 24 3
36 5 10 30
1 33 8 23
4 34 38 0
16 15 25 31
13 35 26 28
22 11 32 2
9 39 19 20
21 18 17 27
